(set-info :smt-lib-version 2.6)
(set-logic QF_UFLRA)
(set-info :source |
MathSat group

|)
(set-info :category "random")
(set-info :status sat)
(declare-fun x0 () Real)
(declare-fun x1 () Real)
(declare-fun x2 () Real)
(declare-fun x3 () Real)
(declare-fun x4 () Real)
(declare-fun x5 () Real)
(declare-fun x6 () Real)
(declare-fun x7 () Real)
(declare-fun x8 () Real)
(declare-fun x9 () Real)
(declare-fun x10 () Real)
(declare-fun x11 () Real)
(declare-fun x12 () Real)
(declare-fun x13 () Real)
(declare-fun x14 () Real)
(declare-fun x15 () Real)
(declare-fun x16 () Real)
(declare-fun x17 () Real)
(declare-fun x18 () Real)
(declare-fun x19 () Real)
(declare-fun x20 () Real)
(declare-fun x21 () Real)
(declare-fun x22 () Real)
(declare-fun x23 () Real)
(declare-fun x24 () Real)
(declare-fun x25 () Real)
(declare-fun x26 () Real)
(declare-fun x27 () Real)
(declare-fun x28 () Real)
(declare-fun x29 () Real)
(declare-fun f0_1 (Real) Real)
(declare-fun f0_2 (Real Real) Real)
(declare-fun f0_3 (Real Real Real) Real)
(declare-fun f0_4 (Real Real Real Real) Real)
(declare-fun P0 () Bool)
(declare-fun P1 () Bool)
(declare-fun P2 () Bool)
(declare-fun P3 () Bool)
(declare-fun P4 () Bool)
(declare-fun P5 () Bool)
(declare-fun P6 () Bool)
(declare-fun P7 () Bool)
(declare-fun P8 () Bool)
(declare-fun P9 () Bool)
(declare-fun P10 () Bool)
(declare-fun P11 () Bool)
(declare-fun P12 () Bool)
(declare-fun P13 () Bool)
(declare-fun P14 () Bool)
(declare-fun P15 () Bool)
(declare-fun P16 () Bool)
(declare-fun P17 () Bool)
(declare-fun P18 () Bool)
(declare-fun P19 () Bool)
(declare-fun P20 () Bool)
(declare-fun P21 () Bool)
(declare-fun P22 () Bool)
(declare-fun P23 () Bool)
(declare-fun P24 () Bool)
(declare-fun P25 () Bool)
(declare-fun P26 () Bool)
(declare-fun P27 () Bool)
(declare-fun P28 () Bool)
(declare-fun P29 () Bool)
(assert (let ((?v_10 (* 32 x14)) (?v_20 (* 18 x3)) (?v_17 (* 37 x9)) (?v_25 (* 29 x22)) (?v_0 (= (- (+ (* 38 x5) (* 38 x8)) (* 39 x14)) 21)) (?v_113 (* 2 x26)) (?v_24 (<= (+ (- (* 12 x19) (* 4 x25)) (* 7 x26)) 31)) (?v_136 (distinct (f0_2 x10 x15) x14)) (?v_93 (distinct x3 (f0_2 x11 x28))) (?v_107 (= (f0_2 x19 x22) (f0_2 x23 x13))) (?v_40 (f0_1 x13)) (?v_45 (f0_1 x3))) (let ((?v_103 (distinct ?v_40 ?v_45)) (?v_63 (= (f0_2 x3 x3) x9)) (?v_56 (distinct ?v_45 x25)) (?v_98 (f0_1 x4))) (let ((?v_111 (= ?v_98 (f0_2 x27 x6))) (?v_52 (distinct (f0_2 x18 x15) x8)) (?v_18 (distinct (f0_1 x24) ?v_40)) (?v_16 (distinct x1 (f0_2 x4 x15))) (?v_8 (distinct (f0_2 x9 x10) (f0_2 x16 x6))) (?v_28 (f0_2 x20 x1))) (let ((?v_38 (= x14 ?v_28)) (?v_57 (distinct (f0_2 x29 x16) x26)) (?v_72 (= (f0_1 x6) (f0_2 x28 x11))) (?v_26 (distinct ?v_28 x28)) (?v_12 (f0_1 x12))) (let ((?v_23 (= ?v_12 x29)) (?v_61 (distinct (f0_2 x19 x21) x25)) (?v_42 (distinct ?v_98 (f0_1 x2))) (?v_7 (= x5 (f0_1 x10))) (?v_62 (distinct (f0_2 x1 x6) x20)) (?v_112 (= x14 x17)) (?v_91 (= (f0_2 x9 x17) (f0_1 x7))) (?v_77 (distinct (f0_2 x14 x3) ?v_45)) (?v_3 (= x16 x2)) (?v_35 (distinct x7 (f0_2 x3 x26))) (?v_43 (= ?v_12 x1)) (?v_29 (= (f0_2 x12 x3) (f0_1 x5))) (?v_64 (distinct (f0_2 x21 x14) x7)) (?v_15 (distinct x2 (f0_1 x0))) (?v_100 (distinct (f0_1 x1) x5)) (?v_1 (not P3)) (?v_135 (not ?v_0)) (?v_71 (not P19)) (?v_73 (not P21)) (?v_13 (not P13)) (?v_78 (not ?v_18)) (?v_49 (not P1)) (?v_36 (not ?v_63)) (?v_65 (not ?v_8)) (?v_5 (not ?v_72)) (?v_11 (not P10))) (let ((?v_138 (not ?v_7)) (?v_14 (not ?v_15)) (?v_9 (not P16)) (?v_46 (not P27)) (?v_32 (not P24)) (?v_68 (not ?v_136)) (?v_53 (not P18)) (?v_33 (not P28)) (?v_31 (not P9)) (?v_139 (not ?v_23)) (?v_50 (not P4)) (?v_101 (not ?v_61)) (?v_70 (not ?v_26)) (?v_95 (not ?v_29)) (?v_104 (not P15)) (?v_47 (not ?v_103)) (?v_99 (not ?v_16)) (?v_122 (not P8)) (?v_102 (not ?v_93)) (?v_51 (not ?v_3)) (?v_90 (not ?v_52)) (?v_84 (not P26)) (?v_97 (not P17)) (?v_81 (not ?v_62)) (?v_94 (not P29)) (?v_108 (not ?v_38)) (?v_79 (not P2)) (?v_96 (not P14)) (?v_86 (not ?v_24)) (?v_75 (not P22)) (?v_87 (not ?v_43)) (?v_118 (or ?v_78 P6)) (?v_157 (not P23)) (?v_146 (not P11)) (?v_121 (not P5)) (?v_160 (not P20)) (?v_137 (not P0)) (?v_133 (not ?v_111)) (?v_131 (not ?v_56)) (?v_124 (not ?v_100)) (?v_126 (not ?v_64)) (?v_132 (not P6)) (?v_120 (not P25)) (?v_117 (not ?v_107)) (?v_127 (not ?v_77)) (?v_125 (not ?v_112)) (?v_145 (not P7)) (?v_130 (not ?v_57)) (?v_159 (not ?v_35)) (?v_144 (not ?v_91)) (?v_151 (not P12)) (?v_155 (not ?v_42)) (?v_37 (<= (+ (* 33 x20) (* 16 x29) ?v_25) 13)) (?v_140 (= (+ (* 11 x26) (* 9 x25)) 35))) (let ((?v_114 (not ?v_140)) (?v_116 (<= (+ (- (* 17 x1) 0) ?v_17) 21)) (?v_153 (not ?v_37)) (?v_80 (< (+ (* 36 x19) (* 35 x24)) 35)) (?v_105 (<= (+ (* 42 x6) (* 3 x21) (* 11 x12)) 42))) (let ((?v_154 (not ?v_105)) (?v_147 (not ?v_116)) (?v_161 (not ?v_80)) (?v_2 (distinct (+ (- (* (- 37) x18) (* 8 x19)) (* 26 x23)) 44)) (?v_39 (<= (+ (- (* 41 x16) (* 39 x5)) x28) (- 24)))) (let ((?v_19 (not ?v_39)) (?v_74 (< (+ (* 26 x10) (* 16 x10) (* 25 x21)) (- 38)))) (let ((?v_110 (not ?v_74)) (?v_4 (<= (+ (* 35 x6) (* 13 x6) (* 21 x26)) (- 33))) (?v_82 (* (- 34) x4))) (let ((?v_66 (< (- (- ?v_82 (* 9 x22)) (* 18 x11)) 42))) (let ((?v_58 (not ?v_66)) (?v_6 (<= (- (- (* (- 31) x22) (* 23 x11)) (* 26 x5)) 0)) (?v_76 (< (- (- ?v_10 ?v_113) (* 4 x6)) (- 29)))) (let ((?v_34 (not ?v_76)) (?v_59 (distinct (- (- (* 22 x20) (* 17 x15)) (* 2 x3)) (- 44)))) (let ((?v_119 (not ?v_59)) (?v_21 (not ?v_6)) (?v_128 (= (- (- (* 39 x22) (* 31 x19)) (* 33 x25)) (- 21)))) (let ((?v_44 (not ?v_128)) (?v_30 (= (- (- ?v_10 x10) (* 30 x14)) (- 12))) (?v_88 (<= (- (- (* (- 2) x29) (* 31 x26)) ?v_17) (- 24)))) (let ((?v_69 (not ?v_88)) (?v_22 (< (+ (- (* 39 x29) (* 24 x10)) (* 38 x10)) (- 1)))) (let ((?v_85 (not ?v_22)) (?v_123 (<= (- (- (* (- 35) x2) (* 10 x25)) ?v_20) 8))) (let ((?v_92 (not ?v_123)) (?v_83 (< (- (* 31 x12) 0) (- 6)))) (let ((?v_54 (not ?v_83)) (?v_27 (= (- (- (* 31 x17) ?v_20) (* 12 x25)) (- 15)))) (let ((?v_134 (not ?v_27)) (?v_55 (< (- (- (* (- 4) x9) ?v_25) 0) (- 20)))) (let ((?v_41 (not ?v_55)) (?v_60 (< (+ (* (- 35) x22) (* 27 x28) (* 5 x8)) 8)) (?v_67 (distinct (- (- (* (- 18) x28) (* 37 x20)) 0) 20)) (?v_48 (< (- (+ (* 42 x13) (* 5 x19)) (* 6 x8)) (- 31))) (?v_158 (not ?v_4))) (let ((?v_115 (not ?v_48)) (?v_129 (not ?v_60)) (?v_89 (<= (- (+ (* 31 x15) (* 3 x15)) (* 5 x6)) (- 32))) (?v_106 (<= (+ ?v_82 (* 12 x14) (* 29 x13)) (- 12)))) (let ((?v_109 (not ?v_89)) (?v_142 (distinct (- (- (* (- 15) x28) ?v_113) (* 31 x21)) 32)) (?v_141 (not ?v_67)) (?v_156 (or P16 ?v_119)) (?v_152 (not ?v_106)) (?v_148 (not ?v_30)) (?v_150 (< (+ (- (* (- 2) x17) (* 31 x4)) (* 33 x12)) (- 40)))) (let ((?v_143 (not ?v_150)) (?v_149 (not ?v_142))) (and (and (and (and (and (and (and (and (and (and (and (and (and (and (and (and (and (and (and (and (and (and (and (and (and (and (and (and (and (and (and (and (and (and (and (and (and (and (and (and (and (and (and (and (and (and (and (and (and (and (and (and (and (and (and (and (and (and (and (and (and (and (and (and (and (and (and (and (and (and (and (and (and (and (and (and (and (and (and (and (and (and (and (and (and (and (and (and (and (and (and (and (and (and (and (and (and (and (and (and (and (and (and (and (and (and (and (and (and (and (and (and (and (and (and (and (and (and (and (and (and (and (and (and (and (and (and (and (and (and (and (and (and (and (and (and (and (and (and (and (and (and (and (and (and (and (and (and (and (and (and (and (and (and (and (and (and (and (and (and (and (and (and (and (and (and (and (and (and (and (and (and (and (and (and (and (and (and (and (and (and (and (and (and (and (and (and (and (and (and (and (and (and (and (and (and (and (and (and (and (and (and (and (and (and (and (and (and (and (and (and (and (and (and (and (and (and (and (and (and (and (and (and (and (and (and (and (and (and (and (and (and (and (and (and (and (and (and (and (and (and (and (and (and (and (and (and (and (and (and (and (and (and (and (and (and (and (and (and (and (and (and (and (and (and (and (and (and (and (and (and (and (and (and (and (and (and (and (and (and (and (and (and (and (and (and (and (and (and (and (and (and (and (and (and (and (and (and (and (and (and (and (and (and (and (and (and (and (and (and (and (and (and (and (and (and (and (and (and (and (and (and (and (and (and (and (and (and (and (and (and (and (and (and (and (and (and (and (and (and (and (and (and (and (and (and (and (and (and (and (and (and (and (and (and (and (and (and (and (or (or ?v_1 ?v_24) ?v_135) (or (or ?v_3 ?v_57) ?v_71)) (or (or ?v_0 ?v_37) P15)) (or (or ?v_73 ?v_13) ?v_78)) (or (or (not ?v_2) ?v_49) ?v_19)) (or (or ?v_110 ?v_4) ?v_36)) (or (or ?v_23 ?v_7) ?v_58)) (or (or ?v_6 ?v_1) ?v_34)) (or (or ?v_2 P22) ?v_65)) (or (or ?v_3 ?v_62) ?v_5)) (or (or ?v_4 ?v_119) ?v_5)) (or (or P29 ?v_11) ?v_21)) (or (or ?v_5 ?v_1) P29)) (or (or ?v_29 ?v_114) ?v_138)) (or (or ?v_8 ?v_14) ?v_9)) (or (or P6 P19) ?v_44)) (or (or P22 ?v_46) ?v_9)) (or (or ?v_30 ?v_11) P0)) (or (or ?v_43 ?v_13) ?v_32)) (or (or ?v_14 ?v_16) ?v_68)) (or (or ?v_53 ?v_15) ?v_11)) (or (or ?v_16 P24) P13)) (or (or ?v_33 ?v_8) ?v_69)) (or (or ?v_85 ?v_116) ?v_18)) (or (or ?v_4 ?v_92) P6)) (or (or ?v_54 ?v_19) ?v_134)) (or (or ?v_35 ?v_21) ?v_3)) (or (or ?v_15 ?v_31) P19)) (or (or ?v_22 ?v_139) ?v_24)) (or (or ?v_26 ?v_50) ?v_41)) (or (or P18 ?v_101) ?v_60)) (or (or P29 ?v_3) ?v_70)) (or (or ?v_27 ?v_38) ?v_95)) (or (or ?v_30 ?v_31) ?v_32)) (or (or P17 ?v_67) P16)) (or (or ?v_8 ?v_33) ?v_34)) (or (or ?v_35 ?v_42) ?v_48)) (or (or ?v_36 ?v_153) P20)) (or (or P23 ?v_38) ?v_104)) (or (or ?v_39 ?v_47) ?v_41)) (or (or P11 P29) ?v_99)) (or (or ?v_52 ?v_41) ?v_42)) (or (or ?v_3 ?v_32) P14)) (or (or ?v_43 ?v_34) P1)) (or (or ?v_5 ?v_122) ?v_44)) (or (or P21 ?v_56) ?v_102)) (or (or ?v_42 ?v_46) ?v_158)) (or (or P15 ?v_19) ?v_47)) (or (or ?v_2 P4) P27)) (or (or ?v_115 ?v_15) ?v_37)) (or (or P14 ?v_34) ?v_0)) (or (or P0 ?v_51) ?v_49)) (or (or ?v_50 ?v_24) P29)) (or (or ?v_51 ?v_51) P9)) (or (or P17 ?v_107) P6)) (or (or ?v_90 ?v_53) ?v_64)) (or (or ?v_91 ?v_54) ?v_84)) (or (or ?v_55 ?v_5) ?v_56)) (or (or ?v_18 ?v_4) ?v_80)) (or (or ?v_57 ?v_41) P17)) (or (or ?v_58 ?v_59) ?v_129)) (or (or ?v_47 P25) ?v_61)) (or (or ?v_50 ?v_97) ?v_81)) (or (or ?v_63 ?v_48) ?v_64)) (or (or ?v_65 P8) ?v_66)) (or (or ?v_67 ?v_67) ?v_100)) (or (or ?v_47 ?v_94) ?v_68)) (or (or ?v_89 ?v_108) ?v_44)) (or (or ?v_53 ?v_69) ?v_68)) (or (or ?v_70 ?v_44) ?v_48)) (or (or ?v_79 ?v_39) ?v_96)) (or (or P16 ?v_71) ?v_33)) (or (or ?v_63 P5) ?v_72)) (or (or ?v_58 ?v_14) ?v_77)) (or (or ?v_31 P17) ?v_86)) (or (or P27 ?v_62) ?v_75)) (or (or ?v_62 ?v_73) ?v_74)) (or (or P3 ?v_0) ?v_75)) (or (or ?v_54 P10) ?v_76)) (or (or ?v_70 ?v_63) ?v_87)) (or (or P26 ?v_48) P14)) (or (or ?v_6 ?v_77) ?v_34)) (or ?v_118 ?v_64)) (or (or P6 ?v_79) ?v_61)) (or (or ?v_80 ?v_81) ?v_106)) (or (or ?v_9 ?v_157) P7)) (or (or ?v_37 ?v_146) ?v_83)) (or (or P19 ?v_84) P2)) (or (or ?v_121 ?v_75) ?v_58)) (or (or P25 P15) P19)) (or (or ?v_85 ?v_62) ?v_160)) (or (or ?v_86 ?v_87) P11)) (or (or ?v_88 ?v_16) ?v_71)) (or (or ?v_68 P2) ?v_109)) (or (or ?v_90 ?v_8) ?v_137)) (or (or ?v_11 ?v_91) ?v_92)) (or (or ?v_1 P10) P13)) (or (or ?v_51 ?v_105) ?v_93)) (or (or ?v_85 P20) ?v_14)) (or (or ?v_94 ?v_81) P25)) (or (or ?v_48 ?v_24) ?v_95)) (or (or ?v_7 ?v_96) ?v_97)) (or (or ?v_133 ?v_99) P16)) (or (or ?v_92 ?v_26) ?v_131)) (or (or ?v_124 ?v_101) ?v_77)) (or (or ?v_126 ?v_37) ?v_102)) (or (or ?v_44 ?v_103) ?v_104)) (or (or ?v_102 ?v_105) ?v_132)) (or (or ?v_2 ?v_120) ?v_106)) (or (or ?v_76 ?v_117) ?v_71)) (or (or ?v_108 ?v_109) ?v_74)) (or (or ?v_84 ?v_105) ?v_63)) (or (or ?v_94 ?v_83) P13)) (or (or ?v_53 P2) ?v_8)) (or (or ?v_30 ?v_33) ?v_69)) (or (or ?v_110 ?v_47) ?v_53)) (or (or ?v_80 ?v_46) ?v_127)) (or (or ?v_106 ?v_112) P5)) (or (or ?v_63 ?v_86) ?v_111)) (or (or ?v_81 ?v_96) ?v_50)) (or (or P2 ?v_125) ?v_142)) (or (or P26 ?v_77) ?v_3)) (or (or ?v_37 P26) ?v_101)) (or (or ?v_61 ?v_19) ?v_27)) (or (or ?v_69 ?v_56) ?v_114)) (or (or ?v_106 ?v_103) ?v_154)) (or (or ?v_5 ?v_115) ?v_6)) (or (or P12 ?v_111) ?v_84)) (or (or ?v_99 ?v_70) ?v_5)) (or (or ?v_145 P2) ?v_130)) (or (or ?v_147 P22) ?v_9)) (or (or ?v_69 P9) ?v_117)) (or ?v_118 ?v_119)) (or (or ?v_87 ?v_80) ?v_120)) (or (or ?v_26 ?v_96) ?v_79)) (or (or ?v_61 ?v_52) P0)) (or (or P27 ?v_59) ?v_141)) (or (or ?v_80 ?v_47) P4)) (or (or ?v_107 ?v_73) ?v_49)) (or (or P3 ?v_18) ?v_81)) (or (or ?v_0 P13) ?v_33)) (or (or ?v_80 ?v_60) ?v_121)) (or (or ?v_122 ?v_61) ?v_69)) (or (or ?v_123 ?v_89) P16)) (or (or ?v_111 ?v_119) ?v_100)) (or (or ?v_124 ?v_94) ?v_68)) (or (or ?v_125 ?v_13) ?v_117)) (or (or ?v_126 ?v_161) ?v_36)) (or (or ?v_48 ?v_42) ?v_116)) (or (or ?v_33 ?v_67) ?v_32)) (or (or ?v_97 ?v_111) ?v_44)) (or (or ?v_127 ?v_127) P18)) (or (or ?v_159 P15) ?v_52)) (or (or ?v_49 P19) ?v_56)) (or (or ?v_90 ?v_128) ?v_129)) (or (or ?v_93 ?v_109) ?v_15)) (or (or ?v_121 ?v_129) ?v_9)) (or (or ?v_31 ?v_15) P17)) (or (or ?v_130 P27) ?v_131)) (or (or ?v_116 ?v_55) ?v_36)) (or (or ?v_52 ?v_110) P6)) (or (or ?v_132 ?v_89) ?v_3)) (or (or ?v_55 ?v_54) ?v_73)) (or (or ?v_53 ?v_132) ?v_55)) (or (or ?v_129 ?v_117) ?v_115)) (or (or P28 ?v_54) ?v_35)) (or ?v_156 ?v_16)) (or (or ?v_105 ?v_130) ?v_103)) (or (or ?v_85 ?v_26) ?v_80)) (or (or ?v_24 ?v_92) ?v_74)) (or (or ?v_57 ?v_130) ?v_128)) (or (or ?v_133 ?v_144) ?v_7)) (or (or P3 ?v_1) ?v_123)) (or (or ?v_50 ?v_89) ?v_71)) (or (or ?v_58 P18) ?v_48)) (or (or ?v_14 ?v_19) ?v_79)) (or (or ?v_68 P1) P11)) (or (or ?v_134 ?v_55) ?v_124)) (or (or ?v_135 ?v_68) ?v_125)) (or (or P16 ?v_69) P17)) (or (or ?v_151 ?v_123) ?v_104)) (or (or ?v_87 ?v_21) ?v_110)) (or (or P7 ?v_53) ?v_100)) (or (or ?v_152 ?v_136) ?v_81)) (or (or P24 ?v_96) ?v_121)) (or (or ?v_68 ?v_5) ?v_42)) (or (or ?v_137 ?v_56) P9)) (or (or ?v_24 ?v_116) ?v_138)) (or (or ?v_32 ?v_96) P0)) (or (or P13 ?v_9) P14)) (or (or ?v_100 ?v_148) ?v_2)) (or (or P20 ?v_122) P16)) (or (or ?v_51 P16) ?v_84)) (or (or ?v_143 ?v_1) ?v_46)) (or (or ?v_139 ?v_76) ?v_107)) (or (or ?v_71 ?v_1) ?v_92)) (or (or ?v_140 P3) ?v_112)) (or (or ?v_95 ?v_104) ?v_97)) (or (or ?v_61 ?v_100) ?v_72)) (or (or P15 ?v_122) ?v_30)) (or (or ?v_35 ?v_117) ?v_68)) (or (or ?v_81 ?v_114) ?v_141)) (or (or ?v_125 ?v_130) ?v_30)) (or (or ?v_11 ?v_123) ?v_57)) (or (or ?v_127 ?v_149) ?v_109)) (or (or ?v_56 ?v_143) ?v_90)) (or (or P15 ?v_144) ?v_30)) (or (or ?v_54 P25) ?v_129)) (or (or ?v_145 ?v_66) ?v_63)) (or (or ?v_84 ?v_146) P1)) (or (or P12 ?v_23) ?v_18)) (or (or ?v_74 P17) ?v_16)) (or (or P22 ?v_97) ?v_120)) (or (or ?v_147 ?v_85) ?v_56)) (or (or ?v_128 ?v_93) ?v_63)) (or (or ?v_18 ?v_147) ?v_19)) (or (or ?v_27 ?v_68) ?v_142)) (or (or ?v_36 ?v_49) ?v_148)) (or (or ?v_47 ?v_14) ?v_83)) (or (or ?v_136 ?v_68) ?v_15)) (or (or ?v_106 ?v_136) ?v_142)) (or (or ?v_85 ?v_1) ?v_114)) (or (or P24 ?v_81) P11)) (or (or ?v_30 ?v_13) ?v_90)) (or (or ?v_130 ?v_66) ?v_75)) (or (or ?v_96 ?v_115) ?v_54)) (or (or P27 P2) P6)) (or (or P14 P19) ?v_147)) (or (or ?v_130 ?v_74) ?v_131)) (or (or ?v_101 P20) P28)) (or (or ?v_137 ?v_51) ?v_24)) (or (or ?v_32 ?v_5) ?v_124)) (or (or ?v_93 ?v_117) ?v_110)) (or (or P8 ?v_62) ?v_65)) (or (or ?v_107 ?v_67) ?v_92)) (or (or ?v_69 ?v_124) ?v_8)) (or (or ?v_46 ?v_36) ?v_149)) (or (or ?v_83 ?v_63) P1)) (or (or ?v_150 ?v_151) ?v_57)) (or (or ?v_55 P17) ?v_60)) (or (or ?v_114 ?v_155) ?v_88)) (or (or ?v_131 P8) P21)) (or (or ?v_120 P10) ?v_47)) (or (or ?v_134 ?v_149) ?v_111)) (or (or P2 ?v_72) P23)) (or (or ?v_88 ?v_60) ?v_27)) (or (or ?v_105 ?v_35) ?v_44)) (or (or ?v_53 P23) ?v_31)) (or (or P1 ?v_67) ?v_15)) (or (or ?v_149 ?v_66) ?v_87)) (or (or ?v_15 ?v_73) ?v_74)) (or (or ?v_56 ?v_36) ?v_152)) (or (or ?v_75 ?v_61) P0)) (or (or ?v_133 ?v_136) ?v_120)) (or (or ?v_27 ?v_153) P22)) (or (or ?v_53 ?v_154) ?v_94)) (or (or ?v_136 ?v_91) P11)) (or (or ?v_34 P25) ?v_6)) (or (or ?v_22 ?v_125) ?v_69)) (or (or ?v_116 P12) P1)) (or (or ?v_155 ?v_57) P24)) (or (or ?v_71 P20) ?v_136)) (or (or ?v_19 ?v_39) ?v_72)) (or (or ?v_76 ?v_133) ?v_128)) (or (or ?v_142 ?v_150) ?v_103)) (or (or ?v_55 ?v_64) ?v_119)) (or (or ?v_2 ?v_78) ?v_69)) (or (or ?v_89 ?v_135) P2)) (or (or ?v_153 ?v_102) ?v_7)) (or (or P25 ?v_122) ?v_103)) (or (or P12 ?v_120) ?v_57)) (or (or ?v_76 ?v_114) ?v_155)) (or (or P24 ?v_31) P4)) (or (or ?v_125 ?v_22) P12)) (or (or P15 ?v_30) ?v_88)) (or (or P13 ?v_57) ?v_46)) (or (or ?v_79 ?v_13) ?v_148)) (or (or ?v_42 ?v_23) ?v_122)) (or (or ?v_116 P4) ?v_90)) (or ?v_156 ?v_6)) (or (or ?v_150 ?v_136) ?v_95)) (or (or ?v_5 ?v_5) ?v_53)) (or (or ?v_150 ?v_109) ?v_24)) (or (or P15 ?v_55) ?v_52)) (or (or ?v_88 ?v_136) ?v_157)) (or (or ?v_55 ?v_145) ?v_158)) (or (or ?v_30 ?v_115) P1)) (or (or ?v_109 ?v_86) P3)) (or (or ?v_46 ?v_1) ?v_83)) (or (or ?v_48 ?v_91) ?v_54)) (or (or ?v_33 ?v_130) P9)) (or (or ?v_155 ?v_122) P23)) (or (or ?v_73 ?v_117) ?v_8)) (or (or ?v_39 P4) ?v_2)) (or (or ?v_126 ?v_126) ?v_111)) (or (or P17 ?v_78) P4)) (or (or ?v_6 ?v_154) ?v_66)) (or (or ?v_55 ?v_87) ?v_63)) (or (or ?v_147 ?v_103) P24)) (or (or ?v_123 ?v_32) P13)) (or (or ?v_158 ?v_135) ?v_46)) (or (or ?v_37 ?v_44) P15)) (or (or ?v_51 ?v_30) ?v_143)) (or (or ?v_46 ?v_147) ?v_115)) (or (or ?v_44 ?v_111) ?v_16)) (or (or P22 P3) ?v_29)) (or (or P8 ?v_103) ?v_144)) (or (or ?v_93 ?v_145) P13)) (or (or P26 ?v_148) ?v_52)) (or (or ?v_110 ?v_68) P9)) (or (or ?v_7 ?v_153) ?v_132)) (or (or ?v_61 P6) P14)) (or (or ?v_35 ?v_99) ?v_121)) (or (or ?v_19 ?v_57) ?v_158)) (or (or P13 ?v_92) ?v_112)) (or (or ?v_3 ?v_129) ?v_141)) (or (or ?v_137 ?v_54) ?v_108)) (or (or ?v_69 P19) ?v_109)) (or (or ?v_44 ?v_95) ?v_90)) (or (or ?v_136 ?v_53) ?v_147)) (or (or ?v_22 ?v_159) ?v_29)) (or (or ?v_127 ?v_106) ?v_39)) (or (or P11 ?v_138) ?v_95)) (or (or ?v_159 ?v_127) ?v_123)) (or (or ?v_101 ?v_90) P26)) (or (or ?v_160 ?v_31) ?v_71)) (or (or P29 ?v_29) ?v_85)) (or (or ?v_11 ?v_59) ?v_53)) (or (or ?v_136 ?v_15) ?v_43)) (or (or ?v_51 ?v_116) ?v_60)) (or (or ?v_66 ?v_42) ?v_148)) (or (or P17 ?v_19) ?v_142)) (or (or ?v_5 ?v_142) ?v_107)) (or (or ?v_111 ?v_3) ?v_67)) (or (or P23 ?v_95) ?v_7)) (or (or P17 ?v_149) ?v_65)) (or (or ?v_80 ?v_68) ?v_14)) (or (or ?v_58 ?v_104) ?v_116)) (or (or ?v_63 ?v_84) P15)) (or (or ?v_34 ?v_56) P9)) (or (or ?v_85 ?v_122) ?v_100)) (or (or ?v_44 ?v_89) ?v_46)) (or (or ?v_110 ?v_39) ?v_35)) (or (or P14 ?v_56) ?v_108)) (or (or ?v_111 ?v_67) ?v_59)) (or (or ?v_138 ?v_2) ?v_63)) (or (or ?v_60 ?v_161) ?v_147)) (or (or P9 ?v_96) ?v_59)) (or (or ?v_107 ?v_143) ?v_57)) (or (or ?v_0 ?v_52) ?v_130)) (or (or ?v_121 ?v_34) ?v_59)) (or (or ?v_91 ?v_126) P12)) (or (or ?v_112 ?v_30) P15)) (or (or ?v_27 P8) P7)) (or (or ?v_130 ?v_90) ?v_79)) (or (or P17 ?v_26) ?v_124)) (or (or ?v_31 ?v_142) ?v_129)) (or (or ?v_24 P13) ?v_124)) (or (or ?v_141 ?v_160) P24)) (or (or ?v_26 ?v_135) P2)))))))))))))))))))))))))))
(check-sat)
(exit)
